notes/week7-examples/Linear-Optimization-AMPL/IMM-9-FS2014-road-inspections.txt
# IMM-9-FS2014-road-inspections.txt
for{1..1} {
solve;
display x;
}
